c SAT Generator for power-law distributed variable frequencies
c -g u -v 20 -c 91 -k 3 -p 2.750000 -b 3.200000 -f /home/schmidt/Devel/ni-kop-sat/data/ensemble/ruf20-91/ruf20-91-41 -u 1 -U 1 -s 1558558073
p cnf 20 91
2 -11 17 0
2 -5 19 0
-3 7 -8 0
5 -14 19 0
-3 5 -6 0
6 8 -18 0
-2 -6 17 0
-3 14 20 0
1 16 -18 0
12 14 19 0
5 -15 -17 0
-3 9 14 0
-3 -17 20 0
-3 4 -8 0
4 -6 -14 0
10 -14 -17 0
-2 -9 18 0
2 -6 -17 0
2 -19 20 0
-6 -8 -17 0
-6 -10 -14 0
-6 10 -15 0
2 9 -15 0
-2 8 20 0
4 -5 -12 0
-6 -13 -16 0
7 -14 16 0
5 12 -18 0
6 -15 20 0
-12 18 -20 0
-4 8 9 0
-2 15 18 0
2 -11 -14 0
-3 10 -18 0
7 9 11 0
-7 -18 -20 0
3 4 -5 0
-8 -9 12 0
-2 18 20 0
1 3 19 0
8 -15 17 0
2 5 9 0
-2 -6 10 0
-1 -13 -14 0
14 -16 17 0
-7 8 15 0
4 9 10 0
3 11 -15 0
9 10 17 0
3 -10 15 0
-1 5 20 0
6 -14 -15 0
1 -13 -20 0
3 4 -15 0
7 13 14 0
-1 -9 -13 0
-5 6 -11 0
-3 -5 -11 0
-2 6 10 0
12 -13 -18 0
-14 15 -18 0
8 12 -13 0
2 -9 -19 0
2 -6 19 0
1 8 -13 0
7 -10 -11 0
7 15 -16 0
5 15 -16 0
8 12 14 0
-5 12 -14 0
-1 6 10 0
3 9 16 0
4 5 -13 0
1 -13 18 0
-7 8 -9 0
-5 10 19 0
-2 9 -16 0
9 -12 -19 0
-10 17 -18 0
4 15 20 0
-13 -18 19 0
-2 -15 -19 0
9 -13 16 0
-1 -6 -20 0
1 -18 -19 0
-1 -4 -13 0
3 -12 16 0
-6 12 -20 0
-3 9 -19 0
8 -13 -20 0
5 8 -14 0
